# Energy minimization
#  data.file and potset.mod are needed.

units		metal
boundary	p p p
atom_style	atomic

read_data	data.file
#read_restart	restart.data
#reset_timestep	0

include		potset1.mod

#neighbor	1.0 bin
neighbor	2.0 bin
neigh_modify    delay 10 check yes
#neigh_modify    delay 0 every 1 check yes

#fix		1 all nve
thermo_style	custom step vol pe
dump		2 all atom 100 dump.*.atom
#run		100

#minimize	1.0e-25 1.0e-25 5000 10000
minimize	1.0e-10 1.0e-10 10000 10000
